p cnf 25 162
-5 -3 -1 2 4 0
13 -12 11 -14 -15 0
12 -15 -14 -11 -13 0
21 -24 -25 22 -23 0
3 -2 1 -5 4 0
5 -3 4 1 2 0
1 -2 3 5 4 0
-1 12 -24 -16 8 0
-20 19 -16 -17 -18 0
-13 -12 15 11 14 0
-11 15 -14 -13 -12 0
14 -13 12 15 11 0
1 20 -8 14 24 0
-3 -1 -4 5 -2 0
8 -6 -10 -7 9 0
-3 2 -5 -1 -4 0
-1 3 -2 -4 -5 0
-17 16 -18 -19 -20 0
-16 20 18 17 -19 0
15 -11 -12 -14 13 0
14 -22 18 8 -1 0
-15 14 -12 -13 -11 0
2 4 1 5 3 0
16 -19 18 17 -20 0
18 16 -19 -17 -20 0
7 6 -8 -9 10 0
-22 -23 -25 -24 21 0
11 13 12 -15 14 0
12 -11 -13 15 14 0
4 3 -2 5 -1 0
-5 -4 -3 -2 -1 0
-17 -18 -16 -20 -19 0
24 21 -23 25 -22 0
20 -19 18 16 -17 0
-11 -13 -12 -14 -15 0
-24 25 23 -22 21 0
-21 -22 -24 23 25 0
-15 -14 11 -13 12 0
15 13 11 -14 -12 0
-7 8 -9 6 10 0
-4 3 1 -2 -5 0
19 -16 17 -20 -18 0
-15 14 13 12 -11 0
11 13 -15 12 -14 0
22 24 23 -25 21 0
23 -21 25 22 24 0
-1 -5 4 3 -2 0
2 -3 -4 5 1 0
12 15 11 13 -14 0
-11 20 -7 -3 21 0
22 21 -23 24 25 0
10 7 -9 8 -6 0
9 -7 -10 -8 6 0
8 -9 7 -6 -10 0
-25 24 -22 23 21 0
-20 -19 -16 18 17 0
25 -23 -24 -21 22 0
20 16 -18 19 -17 0
9 6 -10 -7 8 0
-13 15 -12 -14 11 0
-24 22 -25 23 -21 0
3 2 5 -1 -4 0
20 16 18 -17 19 0
-7 9 8 10 6 0
12 14 11 -13 -15 0
2 4 -1 -3 5 0
-22 -21 25 24 -23 0
10 -9 6 -8 -7 0
25 -24 -21 -23 -22 0
4 1 2 3 -5 0
-6 7 -9 -8 -10 0
-25 -8 18 13 3 0
-5 19 15 -25 6 0
17 20 18 19 -16 0
-9 6 -10 -8 7 0
-6 8 -9 -10 -7 0
-16 -17 -19 20 18 0
24 21 -23 -22 -25 0
13 -11 -14 12 15 0
-22 21 -25 23 -24 0
23 -21 24 -22 25 0
8 -20 12 21 5 0
-3 1 -2 4 -5 0
16 -17 19 -20 -18 0
24 -21 23 -25 22 0
21 -25 24 22 -23 0
8 -23 11 5 -19 0
-4 2 5 -3 -1 0
2 4 -5 -3 1 0
-5 13 -8 21 -20 0
17 18 -20 19 -16 0
-21 -22 -23 24 -25 0
16 18 17 -20 19 0
7 10 -6 9 8 0
6 8 9 7 10 0
17 -19 20 -18 -16 0
-9 -10 6 -8 -7 0
13 -23 -5 -6 18 0
19 16 17 -18 -20 0
4 3 2 -1 5 0
-6 19 -1 -23 -15 0
2 3 4 -1 -5 0
-8 10 9 -6 7 0
8 6 -9 7 10 0
-13 -1 -22 20 -8 0
16 19 20 17 -18 0
25 23 22 21 24 0
-5 3 -1 2 -4 0
7 9 6 -8 -10 0
4 -3 1 5 -2 0
-23 25 22 24 -21 0
-21 -23 -24 -25 -22 0
12 15 -11 13 14 0
-6 -7 -10 -8 -9 0
6 8 -10 -7 -9 0
-13 -14 15 12 11 0
-25 -21 24 -23 22 0
22 -25 -21 -23 -24 0
-4 -3 1 -5 -2 0
-24 21 22 -23 25 0
1 5 -2 -4 -3 0
9 -7 -8 -10 -6 0
2 -4 -3 -5 1 0
21 25 -23 -22 -24 0
24 -21 -25 23 -22 0
12 -25 -8 -4 -19 0
13 -12 -14 -11 -15 0
8 16 -22 5 12 0
-6 -24 -14 -4 18 0
17 -16 20 -18 19 0
18 24 -4 -15 8 0
25 17 -6 15 5 0
16 -10 -1 12 25 0
-13 -14 -12 -15 11 0
-7 -9 8 -6 10 0
17 -22 10 14 1 0
6 16 13 -25 3 0
-7 11 23 20 2 0
-24 -17 15 6 -1 0
19 -17 -16 20 18 0
-20 18 -17 -16 19 0
13 -25 3 -9 -18 0
19 -10 24 1 -11 0
24 2 6 19 12 0
12 14 15 11 13 0
1 22 15 -20 8 0
18 15 24 -8 2 0
4 -1 -2 -3 5 0
-20 -16 -17 -19 18 0
-19 16 20 -18 17 0
5 3 -4 2 1 0
12 -7 -24 -20 -5 0
14 15 -12 -13 -11 0
9 -7 -8 10 6 0
10 -8 -9 -7 -6 0
8 23 11 -4 -18 0
-24 -25 23 21 22 0
-19 -17 20 -18 16 0
3 -4 -1 5 -2 0
-14 13 12 -11 -15 0
-20 9 -23 -15 -2 0
18 5 25 10 -11 0
